p cnf 76 278
-5 -3 0
-5 -4 0
3 4 5 0
-2 5 -6 0
2 -5 -6 0
-2 -5 6 0
2 5 6 0
7 -1 0
7 6 0
1 -6 -7 0
-8 7 0
-8 6 0
-7 -6 8 0
-11 -9 0
-11 -10 0
9 10 11 0
13 -12 0
13 -9 0
12 9 -13 0
14 11 0
14 13 0
-11 -13 -14 0
16 -15 0
16 9 0
15 -9 -16 0
14 16 -17 0
-14 -16 -17 0
14 -16 17 0
-14 16 17 0
-18 -11 0
-18 16 0
11 -16 18 0
-19 -17 0
-19 18 0
17 -18 19 0
-20 -8 0
-20 19 0
8 -19 20 0
-21 -14 0
-21 -15 0
14 15 21 0
-22 -5 0
-22 15 0
5 -15 22 0
23 -12 0
23 -22 0
12 22 -23 0
23 -4 -24 0
-23 4 -24 0
23 4 24 0
-23 -4 24 0
25 21 0
25 24 0
-21 -24 -25 0
11 -10 -26 0
-11 10 -26 0
11 10 26 0
-11 -10 26 0
-27 23 0
-27 2 0
-23 -2 27 0
28 26 0
28 -27 0
-26 27 -28 0
-29 25 0
-29 28 0
-25 -28 29 0
31 30 0
31 -15 0
-30 15 -31 0
32 -31 0
32 -10 0
31 10 -32 0
-33 29 0
-33 -32 0
-29 32 33 0
20 -33 -34 0
-20 33 -34 0
20 33 34 0
-20 -33 34 0
-35 -3 0
-35 11 0
3 -11 35 0
-36 9 0
-36 16 0
-9 -16 36 0
37 -35 0
37 -36 0
35 36 -37 0
-38 9 0
-38 -1 0
-9 1 38 0
39 -38 0
39 1 0
38 -1 -39 0
40 10 0
40 -35 0
-10 35 -40 0
41 5 0
41 -16 0
-5 16 -41 0
40 -41 -42 0
-40 41 -42 0
40 41 42 0
-40 -41 42 0
-43 39 0
-43 -42 0
-39 42 43 0
-44 37 0
-44 -43 0
-37 43 44 0
-13 -45 0
13 -45 0
46 18 0
46 -45 0
-18 45 -46 0
47 11 0
47 -46 0
-11 46 -47 0
-48 -15 0
-48 -23 0
15 23 48 0
48 -12 -49 0
-48 12 -49 0
48 12 49 0
-48 -12 49 0
47 49 -50 0
-47 -49 -50 0
47 -49 50 0
-47 49 50 0
-51 16 0
-51 -26 0
-16 26 51 0
-50 -51 -52 0
50 51 -52 0
-50 51 52 0
50 -51 52 0
-53 44 0
-53 -52 0
-44 52 53 0
54 -11 0
54 48 0
11 -48 -54 0
-56 -26 0
-56 48 0
26 -48 56 0
6 -56 -57 0
-6 56 -57 0
6 56 57 0
-6 -56 57 0
-55 57 -58 0
55 -57 -58 0
-55 -57 58 0
55 57 58 0
-59 54 0
-59 -58 0
-54 58 59 0
-60 -46 0
-60 26 0
46 -26 60 0
-61 7 0
-61 -48 0
-7 48 61 0
62 45 0
62 31 0
-45 -31 -62 0
63 62 0
63 6 0
-62 -6 -63 0
63 -4 -64 0
-63 4 -64 0
63 4 64 0
-63 -4 64 0
61 -64 -65 0
-61 64 -65 0
61 64 65 0
-61 -64 65 0
-66 -60 0
-66 -65 0
60 65 66 0
-67 59 0
-67 66 0
-59 -66 67 0
53 -67 -68 0
-53 67 -68 0
53 67 68 0
-53 -67 68 0
69 34 0
69 -68 0
-34 68 -69 0
-70 -6 0
-70 -38 0
6 38 70 0
71 -48 0
71 23 0
48 -23 -71 0
-72 -70 0
-72 -71 0
70 71 72 0
-13 -22 -73 0
13 22 -73 0
-13 22 73 0
13 -22 73 0
11 -73 -74 0
-11 73 -74 0
11 73 74 0
-11 -73 74 0
-75 -72 0
-75 -74 0
72 74 75 0
76 -69 0
76 -75 0
69 75 -76 0
-12 -71 -19 -18 4 0
33 -28 10 -56 -3 74 0
-29 -6 0
35 2 0
40 65 -3 -31 49 0
45 47 20 12 15 0
-12 30 -8 0
-37 -31 71 -9 0
-71 62 76 32 39 0
44 15 -34 -61 0
-41 -10 -36 -46 -53 0
15 -59 0
-32 -21 48 20 0
-63 -11 0
45 44 -1 51 0
31 -1 -10 -49 -2 73 0
-34 -60 -33 0
55 -20 14 -72 0
-61 -53 19 -29 -60 0
-29 -32 -75 -55 -46 0
-30 -53 36 -47 -9 -4 0
-67 -57 -16 23 0
63 -45 -48 0
75 57 -49 0
-57 -21 73 0
56 71 -52 0
46 36 25 68 45 0
53 60 74 40 -22 50 0
42 24 -56 -34 0
-59 -25 60 19 0
-28 1 34 -50 4 0
-2 -24 -37 -27 0
-19 -13 0
28 -63 60 -46 -69 75 0
52 31 46 -13 9 0
61 -2 39 12 -52 13 0
-11 -8 0
73 -5 26 50 0
46 32 58 -6 -10 -73 0
-63 75 -10 2 -34 0
-44 -11 49 22 -27 -71 0
-18 56 62 -70 0
76 -21 -7 -2 -40 0
-59 -69 -71 27 0
38 -52 -58 -49 0
-63 -20 -11 38 -29 0
7 60 0
-3 -28 69 0
72 -48 27 -6 0
36 62 27 40 22 0
-22 63 -60 -15 74 -55 0
50 -56 44 -45 20 0
-20 54 -21 0
-35 -20 -13 0
-45 -36 -53 -76 -14 0
-21 -15 9 61 0
36 55 -64 -3 -74 0
21 13 0
-40 -3 30 31 0
-38 -47 0
68 53 -59 57 0
-30 -11 52 0
-25 -75 0
24 18 -42 -50 0
76 0
